
Gurobi 8.0.0 (win64, Python) logging started 05/28/18 12:54:20

Academic license - for non-commercial use only
Optimize a model with 1741 rows, 930 columns and 5163 nonzeros
Variable types: 30 continuous, 900 integer (900 binary)
Coefficient statistics:
  Matrix range     [1e+00, 3e+01]
  Objective range  [1e+02, 5e+03]
  Bounds range     [1e+00, 3e+01]
  RHS range        [1e+00, 3e+01]
Found heuristic solution: objective 822.0000000
Presolve removed 59 rows and 31 columns
Presolve time: 0.10s
Presolved: 1682 rows, 899 columns, 4988 nonzeros
Variable types: 29 continuous, 870 integer (870 binary)

Root relaxation: objective 5.941968e+03, 60 iterations, 0.05 seconds

    Nodes    |    Current Node    |     Objective Bounds      |     Work
 Expl Unexpl |  Obj  Depth IntInf | Incumbent    BestBd   Gap | It/Node Time

     0     0 5941.96774    0   22  822.00000 5941.96774   623%     -    0s
H    0     0                    2819.0000000 5941.96774   111%     -    0s
     0     0 4978.25000    0   36 2819.00000 4978.25000  76.6%     -    0s
     0     0 4978.25000    0   36 2819.00000 4978.25000  76.6%     -    0s
     0     0 4721.00000    0   18 2819.00000 4721.00000  67.5%     -    0s
     0     0 4721.00000    0   22 2819.00000 4721.00000  67.5%     -    0s
     0     0 4721.00000    0   27 2819.00000 4721.00000  67.5%     -    0s
     0     0 4721.00000    0   18 2819.00000 4721.00000  67.5%     -    0s
     0     0 4686.00000    0   18 2819.00000 4686.00000  66.2%     -    0s
     0     0 4677.33333    0   15 2819.00000 4677.33333  65.9%     -    0s
     0     0 4674.33333    0   20 2819.00000 4674.33333  65.8%     -    0s
     0     0 4674.33333    0   15 2819.00000 4674.33333  65.8%     -    0s
     0     2 4674.33333    0   15 2819.00000 4674.33333  65.8%     -    0s
*  216   154              18    2941.0000000 4615.93443  57.0%   3.6    1s
H  403   233                    3199.0000000 4610.50000  44.1%   3.6    1s
H  456   225                    3420.0000000 4610.50000  34.8%   3.5    1s
*  541   242              17    3511.0000000 4570.52903  30.2%   3.4    1s
*  681   236              21    3780.0000000 4507.03333  19.2%   3.4    1s
* 1492   361              21    3871.0000000 4371.40000  12.9%   3.8    1s

Cutting planes:
  Learned: 14
  Gomory: 6
  Implied bound: 7
  MIR: 3
  Inf proof: 16
  Zero half: 2

Explored 3226 nodes (15590 simplex iterations) in 1.76 seconds
Thread count was 4 (of 4 available processors)

Solution count 8: 3871 3780 3511 ... 822

Optimal solution found (tolerance 1.00e-04)
Best objective 3.871000000000e+03, best bound 3.871000000000e+03, gap 0.0000%
Optimize a model with 1742 rows, 930 columns and 6033 nonzeros
Variable types: 30 continuous, 900 integer (900 binary)
Coefficient statistics:
  Matrix range     [1e+00, 5e+03]
  Objective range  [1e+02, 5e+03]
  Bounds range     [1e+00, 3e+01]
  RHS range        [1e+00, 4e+03]

MIP start did not produce a new incumbent solution
MIP start violates constraint Budget by 4482.000000000

Found heuristic solution: objective 822.0000000
Presolve removed 553 rows and 173 columns
Presolve time: 0.11s
Presolved: 1189 rows, 757 columns, 7065 nonzeros
Variable types: 29 continuous, 728 integer (728 binary)

Root relaxation: objective 5.597518e+03, 71 iterations, 0.00 seconds

    Nodes    |    Current Node    |     Objective Bounds      |     Work
 Expl Unexpl |  Obj  Depth IntInf | Incumbent    BestBd   Gap | It/Node Time

     0     0 5597.51815    0   14  822.00000 5597.51815   581%     -    0s
H    0     0                    1910.0000000 5597.51815   193%     -    0s
H    0     0                    2819.0000000 5597.51815  98.6%     -    0s
     0     0 4682.07353    0   18 2819.00000 4682.07353  66.1%     -    0s
     0     0 4682.07353    0   14 2819.00000 4682.07353  66.1%     -    0s
     0     0 4682.07353    0   18 2819.00000 4682.07353  66.1%     -    0s
     0     0 4677.78523    0   19 2819.00000 4677.78523  65.9%     -    0s
     0     0 4353.38177    0   19 2819.00000 4353.38177  54.4%     -    0s
     0     0 4333.64610    0   20 2819.00000 4333.64610  53.7%     -    0s
     0     0 4281.60843    0   18 2819.00000 4281.60843  51.9%     -    0s
     0     0 4278.70069    0   18 2819.00000 4278.70069  51.8%     -    0s
     0     0 4278.70069    0   18 2819.00000 4278.70069  51.8%     -    0s
     0     0 4278.70069    0   18 2819.00000 4278.70069  51.8%     -    0s
     0     0 4278.70069    0   18 2819.00000 4278.70069  51.8%     -    0s
     0     0 4278.70069    0   14 2819.00000 4278.70069  51.8%     -    0s
     0     0 4278.70069    0   22 2819.00000 4278.70069  51.8%     -    0s
     0     0 4278.70069    0   17 2819.00000 4278.70069  51.8%     -    0s
     0     0 4278.70069    0   18 2819.00000 4278.70069  51.8%     -    0s
     0     0 4188.35420    0   18 2819.00000 4188.35420  48.6%     -    0s
     0     0 4188.35420    0   18 2819.00000 4188.35420  48.6%     -    0s
     0     2 4188.35420    0   18 2819.00000 4188.35420  48.6%     -    0s

Cutting planes:
  Learned: 11
  Gomory: 4
  Cover: 4
  Implied bound: 12
  MIR: 6
  Inf proof: 14
  Zero half: 1

Explored 2035 nodes (12339 simplex iterations) in 1.21 seconds
Thread count was 4 (of 4 available processors)

Solution count 3: 2819 1910 822 

Optimal solution found (tolerance 1.00e-04)
Best objective 2.819000000000e+03, best bound 2.819000000000e+03, gap 0.0000%

Gurobi 8.0.0 (win64, Python) logging started 05/28/18 13:25:55

Academic license - for non-commercial use only
Optimize a model with 1742 rows, 930 columns and 6033 nonzeros
Variable types: 30 continuous, 900 integer (900 binary)
Coefficient statistics:
  Matrix range     [1e+00, 7e+03]
  Objective range  [1e+02, 7e+03]
  Bounds range     [1e+00, 3e+01]
  RHS range        [1e+00, 1e+04]
Found heuristic solution: objective 310.0000000
Presolve removed 62 rows and 31 columns
Presolve time: 0.02s
Presolved: 1680 rows, 899 columns, 5854 nonzeros
Variable types: 29 continuous, 870 integer (870 binary)

Root relaxation: objective 1.283813e+04, 65 iterations, 0.00 seconds

    Nodes    |    Current Node    |     Objective Bounds      |     Work
 Expl Unexpl |  Obj  Depth IntInf | Incumbent    BestBd   Gap | It/Node Time

     0     0 12838.1290    0   28  310.00000 12838.1290  4041%     -    0s
H    0     0                    2035.0000000 12838.1290   531%     -    0s
     0     0 11318.3656    0   32 2035.00000 11318.3656   456%     -    0s
     0     0 11116.1667    0   31 2035.00000 11116.1667   446%     -    0s
     0     0 11114.5000    0   39 2035.00000 11114.5000   446%     -    0s
     0     0 11114.5000    0   39 2035.00000 11114.5000   446%     -    0s
     0     0 10489.1437    0   26 2035.00000 10489.1437   415%     -    0s
H    0     0                    2536.0000000 10489.1437   314%     -    0s
H    0     0                    5896.0000000 10489.1437  77.9%     -    0s
     0     0 10444.5911    0   29 5896.00000 10444.5911  77.1%     -    0s
     0     0 10444.5911    0   29 5896.00000 10444.5911  77.1%     -    0s
     0     0 10444.5911    0   29 5896.00000 10444.5911  77.1%     -    0s
     0     0 10444.5911    0   29 5896.00000 10444.5911  77.1%     -    0s
     0     2 10444.5911    0   29 5896.00000 10444.5911  77.1%     -    0s
H   31    28                    5961.0000000 10402.1228  74.5%   7.2    0s
H 1083   799                    6063.0000000 9986.80541  64.7%   4.6    2s
H 1089   763                    6345.0000000 9964.82912  57.1%   4.6    2s
H 1089   724                    7151.0000000 9960.70055  39.3%   4.6    2s
H 1090   688                    7360.0000000 9953.71037  35.2%   4.6    2s
  1151   730 9830.18926    8   41 7360.00000 9830.18926  33.6%   4.7    5s
* 1477   788              61    7712.0000000 9773.62382  26.7%   6.8    5s
H 4820  1839                    7741.0000000 9406.90424  21.5%   8.9    7s
 10291  4302 8491.00000   50   29 7741.00000 9211.48231  19.0%   9.6   10s
H11448  4322                    8127.0000000 9211.48231  13.3%   9.5   12s
H11826  4148                    8188.0000000 9211.48231  12.5%   9.4   12s
 19701  4250 8571.76059   76   33 8188.00000 9142.24519  11.7%   9.0   15s
 20626  4224 8882.79376   61   43 8188.00000 9125.56632  11.5%   8.9   20s
 30115  4628 infeasible   73      8188.00000 9125.56632  11.5%   9.0   25s
 50008  6602 8252.76182   71   15 8188.00000 8760.04453  6.99%   9.4   30s
 67845  5775     cutoff   74      8188.00000 8531.03761  4.19%   9.7   35s

Cutting planes:
  Learned: 5
  Gomory: 14
  Cover: 56
  Implied bound: 12
  Clique: 2
  MIR: 17
  StrongCG: 3
  Flow cover: 119
  Inf proof: 95
  Zero half: 22

Explored 80831 nodes (803670 simplex iterations) in 41.43 seconds
Thread count was 4 (of 4 available processors)

Solution count 10: 8188 8127 7741 ... 5896

Optimal solution found (tolerance 1.00e-04)
Best objective 8.188000000000e+03, best bound 8.188000000000e+03, gap 0.0000%

Gurobi 8.0.0 (win64, Python) logging started 05/28/18 14:26:37

Academic license - for non-commercial use only
Optimize a model with 1249 rows, 650 columns and 3649 nonzeros
Variable types: 25 continuous, 625 integer (625 binary)
Coefficient statistics:
  Matrix range     [1e+00, 4e+00]
  Objective range  [1e+02, 5e+03]
  Bounds range     [1e+00, 3e+01]
  RHS range        [1e+00, 3e+00]
Found heuristic solution: objective 1878.0000000
Presolve removed 49 rows and 26 columns
Presolve time: 0.13s
Presolved: 1200 rows, 624 columns, 3504 nonzeros
Variable types: 24 continuous, 600 integer (600 binary)

Root relaxation: objective 3.243750e+04, 71 iterations, 0.00 seconds

    Nodes    |    Current Node    |     Objective Bounds      |     Work
 Expl Unexpl |  Obj  Depth IntInf | Incumbent    BestBd   Gap | It/Node Time

     0     0 32437.5000    0   12 1878.00000 32437.5000  1627%     -    0s
H    0     0                    21894.000000 32437.5000  48.2%     -    0s
H    0     0                    23137.000000 32437.5000  40.2%     -    0s
H    0     0                    23232.000000 32437.5000  39.6%     -    0s
     0     0 31290.0000    0   24 23232.0000 31290.0000  34.7%     -    0s
     0     0 31164.0000    0   24 23232.0000 31164.0000  34.1%     -    0s
H    0     0                    25264.000000 31164.0000  23.4%     -    0s
H    0     0                    25523.000000 31164.0000  22.1%     -    0s
     0     0 31054.2500    0   25 25523.0000 31054.2500  21.7%     -    0s
     0     0 30947.9000    0   36 25523.0000 30947.9000  21.3%     -    0s
     0     0 30945.4000    0   36 25523.0000 30945.4000  21.2%     -    0s
     0     0 30900.4000    0   34 25523.0000 30900.4000  21.1%     -    0s
     0     0 30900.4000    0   33 25523.0000 30900.4000  21.1%     -    0s
     0     0 30821.4500    0   38 25523.0000 30821.4500  20.8%     -    0s
     0     0 30820.6500    0   38 25523.0000 30820.6500  20.8%     -    0s
     0     0 30820.6500    0   38 25523.0000 30820.6500  20.8%     -    0s
H    0     0                    25558.000000 30820.6500  20.6%     -    0s
     0     0 30797.0333    0   38 25558.0000 30797.0333  20.5%     -    0s
     0     0 30786.2083    0   38 25558.0000 30786.2083  20.5%     -    0s
     0     0 30777.8333    0   39 25558.0000 30777.8333  20.4%     -    0s
     0     0 30775.3333    0   37 25558.0000 30775.3333  20.4%     -    0s
     0     0 30775.3333    0   35 25558.0000 30775.3333  20.4%     -    0s
     0     2 30775.3333    0   35 25558.0000 30775.3333  20.4%     -    0s
H 1229   842                    25573.000000 28267.1937  10.5%   3.9    1s
H 1241   806                    25613.000000 27920.0369  9.01%   3.9    2s
H 1311   799                    25665.000000 27387.6163  6.71%   5.7    3s
* 1414   742              42    25864.000000 27387.6163  5.89%   6.5    3s
* 1789   585              37    25920.000000 26687.7182  2.96%   8.8    3s
* 1860   536              33    25944.000000 26501.8981  2.15%   8.9    3s

Cutting planes:
  Gomory: 13
  Implied bound: 8
  MIR: 13
  StrongCG: 1
  Flow cover: 42
  GUB cover: 3
  Inf proof: 1
  Zero half: 36

Explored 1948 nodes (17806 simplex iterations) in 3.81 seconds
Thread count was 4 (of 4 available processors)

Solution count 10: 25944 25920 25864 ... 23232

Optimal solution found (tolerance 1.00e-04)
Best objective 2.594400000000e+04, best bound 2.594400000000e+04, gap 0.0000%
Optimize a model with 1250 rows, 650 columns and 4249 nonzeros
Variable types: 25 continuous, 625 integer (625 binary)
Coefficient statistics:
  Matrix range     [1e+00, 5e+03]
  Objective range  [1e+02, 5e+03]
  Bounds range     [1e+00, 3e+01]
  RHS range        [1e+00, 4e+03]

MIP start did not produce a new incumbent solution
MIP start violates constraint Budget by 13328.000000000

Found heuristic solution: objective 1878.0000000
Presolve removed 390 rows and 122 columns
Presolve time: 0.07s
Presolved: 860 rows, 528 columns, 5406 nonzeros
Variable types: 24 continuous, 504 integer (504 binary)

Root relaxation: objective 2.276715e+04, 58 iterations, 0.00 seconds

    Nodes    |    Current Node    |     Objective Bounds      |     Work
 Expl Unexpl |  Obj  Depth IntInf | Incumbent    BestBd   Gap | It/Node Time

     0     0 22767.1550    0   18 1878.00000 22767.1550  1112%     -    0s
H    0     0                    4692.0000000 22767.1550   385%     -    0s
H    0     0                    6169.0000000 22767.1550   269%     -    0s
H    0     0                    7214.0000000 22767.1550   216%     -    0s
H    0     0                    7466.0000000 22517.4320   202%     -    0s
     0     0 21129.2642    0   27 7466.00000 21129.2642   183%     -    0s
H    0     0                    8067.0000000 21129.2642   162%     -    0s
H    0     0                    8377.0000000 21129.2642   152%     -    0s
     0     0 21066.5307    0   32 8377.00000 21066.5307   151%     -    0s
     0     0 21066.5307    0   32 8377.00000 21066.5307   151%     -    0s
     0     0 19390.0245    0   28 8377.00000 19390.0245   131%     -    0s
     0     0 19197.0286    0   29 8377.00000 19197.0286   129%     -    0s
     0     0 19183.9962    0   33 8377.00000 19183.9962   129%     -    0s
     0     0 19180.4428    0   33 8377.00000 19180.4428   129%     -    0s
     0     0 19180.4428    0   33 8377.00000 19180.4428   129%     -    0s
     0     0 18981.1342    0   31 8377.00000 18981.1342   127%     -    0s
     0     0 18981.1342    0   31 8377.00000 18981.1342   127%     -    0s
     0     0 18757.3107    0   32 8377.00000 18757.3107   124%     -    0s
     0     0 18757.3107    0   32 8377.00000 18757.3107   124%     -    0s
     0     0 18753.9010    0   31 8377.00000 18753.9010   124%     -    0s
     0     0 18731.5161    0   32 8377.00000 18731.5161   124%     -    0s
     0     0 18642.0392    0   31 8377.00000 18642.0392   123%     -    0s
     0     0 18635.4347    0   32 8377.00000 18635.4347   122%     -    0s
     0     0 18635.4347    0   32 8377.00000 18635.4347   122%     -    0s
     0     2 18635.4347    0   32 8377.00000 18635.4347   122%     -    0s
H   74    59                    9730.0000000 17695.8362  81.9%   8.8    0s
H  707   299                    9765.0000000 15437.6431  58.1%   8.1    1s
* 3015   472              26    10172.000000 12598.2000  23.9%   8.0    1s

Cutting planes:
  Learned: 11
  Gomory: 6
  Cover: 9
  Implied bound: 37
  MIR: 11
  Flow cover: 12
  Inf proof: 2
  Zero half: 7

Explored 4042 nodes (32611 simplex iterations) in 1.69 seconds
Thread count was 4 (of 4 available processors)

Solution count 10: 10172 9765 9730 ... 1878

Optimal solution found (tolerance 1.00e-04)
Best objective 1.017200000000e+04, best bound 1.017200000000e+04, gap 0.0000%

Gurobi 8.0.0 (win64, Python) logging started 05/28/18 14:46:58

Academic license - for non-commercial use only
Optimize a model with 2281 rows, 673 columns and 6817 nonzeros
Variable types: 0 continuous, 673 integer (673 binary)
Coefficient statistics:
  Matrix range     [1e+00, 1e+00]
  Objective range  [1e+02, 5e+03]
  Bounds range     [1e+00, 1e+00]
  RHS range        [1e+00, 1e+00]
Found heuristic solution: objective 1878.0000000
Presolve removed 25 rows and 25 columns
Presolve time: 0.02s
Presolved: 2256 rows, 648 columns, 7320 nonzeros
Variable types: 0 continuous, 648 integer (648 binary)

Root relaxation: objective 3.092017e+04, 92 iterations, 0.00 seconds

    Nodes    |    Current Node    |     Objective Bounds      |     Work
 Expl Unexpl |  Obj  Depth IntInf | Incumbent    BestBd   Gap | It/Node Time

     0     0 30920.1667    0   58 1878.00000 30920.1667  1546%     -    0s
H    0     0                    12482.000000 30920.1667   148%     -    0s
H    0     0                    20802.000000 30920.1667  48.6%     -    0s
H    0     0                    22068.000000 30920.1667  40.1%     -    0s
H    0     0                    22208.000000 30920.1667  39.2%     -    0s
H    0     0                    22267.000000 30920.1667  38.9%     -    0s
     0     0 30718.5000    0   64 22267.0000 30718.5000  38.0%     -    0s
H    0     0                    23162.000000 30718.5000  32.6%     -    0s
H    0     0                    23221.000000 30718.5000  32.3%     -    0s
H    0     0                    23610.000000 30718.5000  30.1%     -    0s
     0     0 30547.6000    0   71 23610.0000 30547.6000  29.4%     -    0s
     0     0 30463.3333    0   71 23610.0000 30463.3333  29.0%     -    0s
H    0     0                    24089.000000 30463.3333  26.5%     -    0s
     0     0 29897.6000    0   85 24089.0000 29897.6000  24.1%     -    0s
H    0     0                    24305.000000 29897.6000  23.0%     -    0s
H    0     0                    25061.000000 29897.6000  19.3%     -    0s
     0     0 29766.7500    0   82 25061.0000 29766.7500  18.8%     -    0s
     0     0 29528.6833    0   91 25061.0000 29528.6833  17.8%     -    0s
     0     0 29476.6667    0   90 25061.0000 29476.6667  17.6%     -    0s
H    0     0                    25401.000000 29476.6667  16.0%     -    0s
H    0     0                    25558.000000 29476.6667  15.3%     -    0s
     0     0 29413.2611    0   93 25558.0000 29413.2611  15.1%     -    0s
     0     0 29409.1944    0   93 25558.0000 29409.1944  15.1%     -    0s
     0     0 29393.7778    0   94 25558.0000 29393.7778  15.0%     -    0s
     0     0 29393.7778    0   94 25558.0000 29393.7778  15.0%     -    0s
     0     0 29383.7257    0   98 25558.0000 29383.7257  15.0%     -    2s
     0     0 29378.8519    0   99 25558.0000 29378.8519  14.9%     -    2s
     0     0 29323.4028    0   95 25558.0000 29323.4028  14.7%     -    2s
     0     0 29309.7508    0   98 25558.0000 29309.7508  14.7%     -    2s
     0     0 29291.6944    0   96 25558.0000 29291.6944  14.6%     -    2s
     0     0 29289.3194    0   96 25558.0000 29289.3194  14.6%     -    2s
     0     0 29287.9206    0   97 25558.0000 29287.9206  14.6%     -    2s
     0     0 29281.0505    0   98 25558.0000 29281.0505  14.6%     -    2s
     0     0 29279.9206    0   97 25558.0000 29279.9206  14.6%     -    2s
     0     0 29271.9206    0   97 25558.0000 29271.9206  14.5%     -    2s
H    0     0                    25613.000000 29271.9206  14.3%     -    2s
H    0     0                    25668.000000 29271.9206  14.0%     -    2s
     0     0 29271.9206    0   93 25668.0000 29271.9206  14.0%     -    2s
     0     2 29271.9206    0   93 25668.0000 29271.9206  14.0%     -    2s
*  725   351              21    25863.000000 28140.4333  8.81%   7.0    2s
H 1516   661                    25944.000000 27907.7917  7.57%   7.8    3s
  2152   922 26494.4790   13  106 25944.0000 26494.4790  2.12%   8.3    5s

Cutting planes:
  Gomory: 5
  Clique: 1
  MIR: 2
  Flow cover: 28
  Zero half: 42

Explored 2198 nodes (20451 simplex iterations) in 5.99 seconds
Thread count was 4 (of 4 available processors)

Solution count 10: 25944 25863 25668 ... 23610

Optimal solution found (tolerance 1.00e-04)
Best objective 2.594400000000e+04, best bound 2.594400000000e+04, gap 0.0000%
Optimize a model with 2282 rows, 673 columns and 7393 nonzeros
Variable types: 0 continuous, 673 integer (673 binary)
Coefficient statistics:
  Matrix range     [1e+00, 5e+03]
  Objective range  [1e+02, 5e+03]
  Bounds range     [1e+00, 1e+00]
  RHS range        [1e+00, 4e+03]

MIP start did not produce a new incumbent solution
MIP start violates constraint Budget by 13328.000000000

Found heuristic solution: objective 1878.0000000
Presolve removed 949 rows and 144 columns
Presolve time: 0.14s
Presolved: 1333 rows, 529 columns, 7586 nonzeros
Variable types: 0 continuous, 529 integer (529 binary)

Root relaxation: objective 1.891843e+04, 75 iterations, 0.00 seconds

    Nodes    |    Current Node    |     Objective Bounds      |     Work
 Expl Unexpl |  Obj  Depth IntInf | Incumbent    BestBd   Gap | It/Node Time

     0     0 18918.4294    0   41 1878.00000 18918.4294   907%     -    0s
H    0     0                    3263.0000000 18918.4294   480%     -    0s
H    0     0                    4646.0000000 18918.4294   307%     -    0s
H    0     0                    6684.0000000 18918.4294   183%     -    0s
     0     0 18539.2049    0   61 6684.00000 18539.2049   177%     -    0s
H    0     0                    8377.0000000 18539.2049   121%     -    0s
H    0     0                    8601.0000000 18299.4231   113%     -    0s
     0     0 16659.4189    0   57 8601.00000 16659.4189  93.7%     -    0s
     0     0 16565.3032    0   58 8601.00000 16565.3032  92.6%     -    0s
     0     0 16565.3032    0   60 8601.00000 16565.3032  92.6%     -    0s
     0     0 15764.7410    0   69 8601.00000 15764.7410  83.3%     -    0s
     0     0 15479.9623    0   68 8601.00000 15479.9623  80.0%     -    0s
H    0     0                    8612.0000000 15479.9623  79.7%     -    0s
     0     0 15410.0346    0   69 8612.00000 15410.0346  78.9%     -    0s
     0     0 15395.1678    0   70 8612.00000 15395.1678  78.8%     -    0s
     0     0 15392.0026    0   69 8612.00000 15392.0026  78.7%     -    0s
     0     0 15169.7706    0   45 8612.00000 15169.7706  76.1%     -    0s
H    0     0                    8778.0000000 15169.7706  72.8%     -    0s
     0     0 15164.3040    0   54 8778.00000 15164.3040  72.8%     -    0s
     0     0 15155.2605    0   50 8778.00000 15155.2605  72.7%     -    0s
     0     0 15148.0323    0   54 8778.00000 15148.0323  72.6%     -    0s
     0     0 14965.5091    0   52 8778.00000 14965.5091  70.5%     -    0s
     0     0 14961.5311    0   52 8778.00000 14961.5311  70.4%     -    0s
     0     0 14912.1600    0   46 8778.00000 14912.1600  69.9%     -    0s
     0     0 14906.2581    0   57 8778.00000 14906.2581  69.8%     -    0s
     0     0 14869.5583    0   55 8778.00000 14869.5583  69.4%     -    0s
     0     0 14822.5047    0   54 8778.00000 14822.5047  68.9%     -    0s
     0     0 14821.9316    0   44 8778.00000 14821.9316  68.9%     -    0s
     0     0 14805.0480    0   55 8778.00000 14805.0480  68.7%     -    0s
     0     0 14775.9887    0   52 8778.00000 14775.9887  68.3%     -    0s
     0     0 14753.3595    0   53 8778.00000 14753.3595  68.1%     -    0s
     0     0 14752.0096    0   56 8778.00000 14752.0096  68.1%     -    0s
H    0     0                    9669.0000000 14752.0096  52.6%     -    0s
     0     0 14730.7910    0   54 9669.00000 14730.7910  52.4%     -    0s
     0     0 14688.2988    0   56 9669.00000 14688.2988  51.9%     -    0s
     0     0 14675.7206    0   58 9669.00000 14675.7206  51.8%     -    0s
     0     0 14675.7206    0   44 9669.00000 14675.7206  51.8%     -    0s
     0     0 13443.5499    0   36 9669.00000 13443.5499  39.0%     -    0s
     0     0 13009.8596    0   42 9669.00000 13009.8596  34.6%     -    0s
     0     0 12977.2914    0   44 9669.00000 12977.2914  34.2%     -    0s
     0     0 12935.5959    0   44 9669.00000 12935.5959  33.8%     -    1s
     0     0 12935.2408    0   39 9669.00000 12935.2408  33.8%     -    1s
     0     0 12934.7592    0   40 9669.00000 12934.7592  33.8%     -    1s
     0     0 12890.8539    0   40 9669.00000 12890.8539  33.3%     -    1s
     0     0 12845.6049    0   41 9669.00000 12845.6049  32.9%     -    1s
     0     0 12831.8976    0   40 9669.00000 12831.8976  32.7%     -    1s
     0     0 12727.8980    0   35 9669.00000 12727.8980  31.6%     -    1s
     0     0 12722.4403    0   43 9669.00000 12722.4403  31.6%     -    1s
     0     0 12722.4403    0   43 9669.00000 12722.4403  31.6%     -    1s
H    0     0                    9765.0000000 12722.4403  30.3%     -    1s
     0     0 12722.4403    0   31 9765.00000 12722.4403  30.3%     -    1s
     0     0 12300.2121    0   34 9765.00000 12300.2121  26.0%     -    1s
     0     0 11978.9223    0   40 9765.00000 11978.9223  22.7%     -    1s
     0     0 11904.7923    0   32 9765.00000 11904.7923  21.9%     -    1s
H    0     0                    10172.000000 11904.7923  17.0%     -    1s
     0     0 11790.2693    0   34 10172.0000 11790.2693  15.9%     -    1s
     0     0 11779.8225    0   45 10172.0000 11779.8225  15.8%     -    1s
     0     0 11658.2481    0   39 10172.0000 11658.2481  14.6%     -    1s
     0     0 11658.2481    0   30 10172.0000 11658.2481  14.6%     -    1s
     0     0 11658.2481    0   32 10172.0000 11658.2481  14.6%     -    1s
     0     0 11658.2481    0   37 10172.0000 11658.2481  14.6%     -    1s
     0     0 11658.2481    0   31 10172.0000 11658.2481  14.6%     -    1s
     0     0 11658.2481    0   33 10172.0000 11658.2481  14.6%     -    1s
     0     0 11650.9164    0   33 10172.0000 11650.9164  14.5%     -    1s
     0     0 11546.3906    0   40 10172.0000 11546.3906  13.5%     -    1s
     0     0 11533.1330    0   40 10172.0000 11533.1330  13.4%     -    1s
     0     0 11474.0954    0   37 10172.0000 11474.0954  12.8%     -    1s
     0     0 11463.0254    0   40 10172.0000 11463.0254  12.7%     -    1s
     0     0 11455.5056    0   42 10172.0000 11455.5056  12.6%     -    1s
     0     0 11451.2874    0   44 10172.0000 11451.2874  12.6%     -    1s
     0     0 11045.0228    0   45 10172.0000 11045.0228  8.58%     -    1s
     0     0 10660.0535    0   35 10172.0000 10660.0535  4.80%     -    1s
     0     0 10453.0016    0   38 10172.0000 10453.0016  2.76%     -    1s
     0     0 10183.6908    0   48 10172.0000 10183.6908  0.11%     -    1s
     0     0 10183.6908    0   44 10172.0000 10183.6908  0.11%     -    1s
     0     0 10183.6908    0   44 10172.0000 10183.6908  0.11%     -    1s
     0     0 10183.6908    0   28 10172.0000 10183.6908  0.11%     -    1s
     0     0 10183.6908    0   32 10172.0000 10183.6908  0.11%     -    1s
     0     0 10183.6908    0   34 10172.0000 10183.6908  0.11%     -    1s
     0     0 10183.6908    0   41 10172.0000 10183.6908  0.11%     -    1s
     0     0 10183.6908    0   39 10172.0000 10183.6908  0.11%     -    1s
     0     0 10183.6908    0   39 10172.0000 10183.6908  0.11%     -    1s
     0     0 10183.6908    0   22 10172.0000 10183.6908  0.11%     -    1s
     0     0 10183.6908    0   22 10172.0000 10183.6908  0.11%     -    1s
     0     0 10183.6908    0   15 10172.0000 10183.6908  0.11%     -    1s
     0     0 10183.6908    0   21 10172.0000 10183.6908  0.11%     -    1s
     0     0 10183.6908    0   21 10172.0000 10183.6908  0.11%     -    1s
     0     0 10183.6908    0   21 10172.0000 10183.6908  0.11%     -    1s
     0     0 10183.6908    0   21 10172.0000 10183.6908  0.11%     -    1s
     0     0 10183.6908    0    6 10172.0000 10183.6908  0.11%     -    1s
     0     0 infeasible    0      10172.0000 10172.0000  0.00%     -    1s

Cutting planes:
  Gomory: 3
  MIR: 1
  Zero half: 1

Explored 1 nodes (1065 simplex iterations) in 1.59 seconds
Thread count was 4 (of 4 available processors)

Solution count 10: 10172 9765 9669 ... 3263

Optimal solution found (tolerance 1.00e-04)
Best objective 1.017200000000e+04, best bound 1.017200000000e+04, gap 0.0000%
Optimize a model with 1742 rows, 930 columns and 6033 nonzeros
Variable types: 30 continuous, 900 integer (900 binary)
Coefficient statistics:
  Matrix range     [1e+00, 7e+03]
  Objective range  [1e+02, 7e+03]
  Bounds range     [1e+00, 3e+01]
  RHS range        [1e+00, 1e+04]
Found heuristic solution: objective 310.0000000
Presolve removed 62 rows and 31 columns
Presolve time: 0.02s
Presolved: 1680 rows, 899 columns, 5854 nonzeros
Variable types: 29 continuous, 870 integer (870 binary)

Root relaxation: objective 1.283813e+04, 65 iterations, 0.00 seconds

    Nodes    |    Current Node    |     Objective Bounds      |     Work
 Expl Unexpl |  Obj  Depth IntInf | Incumbent    BestBd   Gap | It/Node Time

     0     0 12838.1290    0   28  310.00000 12838.1290  4041%     -    0s
H    0     0                    2035.0000000 12838.1290   531%     -    0s
     0     0 11318.3656    0   32 2035.00000 11318.3656   456%     -    0s
     0     0 11116.1667    0   31 2035.00000 11116.1667   446%     -    0s
     0     0 11114.5000    0   39 2035.00000 11114.5000   446%     -    0s
     0     0 11114.5000    0   39 2035.00000 11114.5000   446%     -    0s
     0     0 10489.1437    0   26 2035.00000 10489.1437   415%     -    0s
H    0     0                    2536.0000000 10489.1437   314%     -    0s
H    0     0                    5896.0000000 10489.1437  77.9%     -    0s
     0     0 10444.5911    0   29 5896.00000 10444.5911  77.1%     -    0s
     0     0 10444.5911    0   29 5896.00000 10444.5911  77.1%     -    0s
     0     0 10444.5911    0   29 5896.00000 10444.5911  77.1%     -    0s
     0     0 10444.5911    0   29 5896.00000 10444.5911  77.1%     -    0s
     0     2 10444.5911    0   29 5896.00000 10444.5911  77.1%     -    0s
H   31    28                    5961.0000000 10402.1228  74.5%   7.2    0s
H 1083   799                    6063.0000000 9986.80541  64.7%   4.6    2s
H 1089   763                    6345.0000000 9964.82912  57.1%   4.6    2s
H 1089   724                    7151.0000000 9960.70055  39.3%   4.6    2s
H 1090   688                    7360.0000000 9953.71037  35.2%   4.6    2s
* 1477   788              61    7712.0000000 9773.62382  26.7%   6.8    4s
  2224  1024 8827.85615   45   27 7712.00000 9631.75712  24.9%   7.3    5s
H 4820  1839                    7741.0000000 9406.90424  21.5%   8.9    5s
 10898  4510 8429.51963   56   16 7741.00000 9211.48231  19.0%   9.6   10s
H11448  4322                    8127.0000000 9211.48231  13.3%   9.5   10s
H11826  4148                    8188.0000000 9211.48231  12.5%   9.4   10s
 20607  4211 9121.45605   71   28 8188.00000 9125.56632  11.5%   8.9   15s
 30561  4623 8237.00199   83   16 8188.00000 9125.56632  11.5%   9.0   20s
 54807  6817 8293.06259   78   16 8188.00000 8691.66682  6.15%   9.5   25s
 76570  2944 8319.59314   67   24 8188.00000 8389.40000  2.46%   9.9   30s

Cutting planes:
  Learned: 5
  Gomory: 14
  Cover: 56
  Implied bound: 12
  Clique: 2
  MIR: 17
  StrongCG: 3
  Flow cover: 119
  Inf proof: 95
  Zero half: 22

Explored 80831 nodes (803670 simplex iterations) in 31.07 seconds
Thread count was 4 (of 4 available processors)

Solution count 10: 8188 8127 7741 ... 5896

Optimal solution found (tolerance 1.00e-04)
Best objective 8.188000000000e+03, best bound 8.188000000000e+03, gap 0.0000%
Optimize a model with 1742 rows, 930 columns and 6033 nonzeros
Variable types: 30 continuous, 900 integer (900 binary)
Coefficient statistics:
  Matrix range     [1e+00, 7e+03]
  Objective range  [1e+02, 7e+03]
  Bounds range     [1e+00, 3e+01]
  RHS range        [1e+00, 1e+04]
Found heuristic solution: objective 8188.0000000
Presolve removed 1713 rows and 901 columns
Presolve time: 0.00s
Presolved: 29 rows, 29 columns, 170 nonzeros
Variable types: 4 continuous, 25 integer (25 binary)

Root relaxation: objective 8.614262e+03, 10 iterations, 0.00 seconds

    Nodes    |    Current Node    |     Objective Bounds      |     Work
 Expl Unexpl |  Obj  Depth IntInf | Incumbent    BestBd   Gap | It/Node Time

     0     0 8548.93407    0    2 8188.00000 8548.93407  4.41%     -    0s
H    0     0                    8534.0000000 8548.93407  0.17%     -    0s
     0     0 infeasible    0      8534.00000 8534.00000  0.00%     -    0s

Explored 1 nodes (14 simplex iterations) in 0.04 seconds
Thread count was 4 (of 4 available processors)

Solution count 2: 8534 8188 

Optimal solution found (tolerance 1.00e-04)
Best objective 8.534000000000e+03, best bound 8.534000000000e+03, gap 0.0000%
Warning: linear constraint 1741 and linear constraint 1742 have the same name "Budget"
Optimize a model with 1743 rows, 930 columns and 6903 nonzeros
Variable types: 30 continuous, 900 integer (900 binary)
Coefficient statistics:
  Matrix range     [1e+00, 7e+03]
  Objective range  [1e+02, 7e+03]
  Bounds range     [1e+00, 3e+01]
  RHS range        [1e+00, 1e+04]

MIP start did not produce a new incumbent solution
MIP start violates constraint Budget by 9901.000000000

Presolve removed 59 rows and 51 columns
Presolve time: 0.00s

Explored 0 nodes (0 simplex iterations) in 0.03 seconds
Thread count was 1 (of 4 available processors)

Solution count 0

Model is infeasible
Best objective -, best bound -, gap -
